c description: Random 3-CNF over 12 variables and 24 clauses
p cnf 12 24
-5 -8 -10 0
-4 -8 12 0
-7 9 12 0
-2 -7 -9 0
1 7 -9 0
4 -10 -11 0
2 -6 -9 0
-1 -3 -11 0
5 7 -9 0
-4 5 9 0
7 11 -12 0
4 9 -12 0
-5 -7 -10 0
-1 2 -7 0
-6 -8 -11 0
6 9 12 0
-2 5 -7 0
-1 -2 -4 0
-2 -5 -8 0
1 -5 10 0
-1 -4 5 0
1 2 4 0
-4 5 10 0
-2 -7 -12 0